NAME: crimea
TYPE: TSP
COMMENT: 23 Cities in Crimea, geographical distances
DIMENSION: 23
EDGE_WEIGHT_TYPE: EXPLICIT
EDGE_WEIGHT_FORMAT: UPPER_ROW
DISPLAY_DATA_TYPE: TWOD_DISPLAY
DISPLAY_DATA_SECTION
   1     401.0   123.0
   2     431.0   182.0
   3     625.0   777.0
   4     340.0   275.0
   5     100.0   386.0
   6     588.0   377.0
   8     724.0   385.0
   9     309.0   520.0
   10    379.0   552.0
   11    533.0   618.0
   12    471.0   723.0
   13    360.0   782.0
   14    702.0   574.0
   15    932.0   561.0
   16   1058.0   450.0
   17    789.0   661.0
   18    634.0   740.0
   19    563.0   828.0
   20    786.0   437.0
   21   1268.0   395.0
   22    849.0   478.0
   23   1064.0   384.0
EOF